1335
2027
5840
9334
4894
6308
3755
9409
710
2115
7123
4967
4450
6134
1794
3523
2133
6820
4524
3496
955
2994
9806
4210
8069
1345
6133
9712
2152
5981
5765
4051
3283
4938
10176
2520
5370
7579
3064
8852
6398
4777
6322
8606
1869
1725
467
9539
9685
9539
